NAME : KROA149B.31733.tour
COMMENT : Cost = 0_31733
COMMENT : Found by LKH [Keld Helsgaun] Sun Sep 17 16:52:43 2017
TYPE : TOUR
DIMENSION : 149
TOUR_SECTION
1
63
6
49
105
133
53
19
75
117
118
142
56
138
42
8
92
129
141
104
28
58
107
64
40
54
2
143
113
44
50
68
85
134
139
144
57
55
83
34
29
14
48
99
71
41
135
127
119
114
122
43
3
46
131
111
52
78
95
100
120
30
106
39
146
5
37
102
145
33
76
13
125
82
115
73
69
81
25
61
51
124
87
9
7
116
148
12
27
86
35
149
20
77
109
62
60
23
45
11
17
15
32
108
91
97
130
93
67
147
132
137
89
121
31
80
96
4
65
123
26
128
66
70
22
94
16
88
136
18
24
38
103
110
101
98
36
126
59
140
74
21
72
10
84
79
90
112
47
-1
EOF
